20
1 0 1
2 1 1
3 2 1
4 0 1
4 3 1
5 0 1
5 3 1
6 0 1
6 1 1
6 2 1
6 3 1
7 1 1
7 2 1
7 3 1
7 4 1
8 1 1
8 5 1
8 6 1
8 7 1
9 1 1
9 2 1
9 4 1
9 5 1
9 8 1
10 2 1
10 3 1
10 6 1
10 8 1
11 0 1
11 1 1
11 4 1
11 6 1
11 7 1
11 8 1
11 9 1
11 10 1
12 1 1
12 2 1
12 4 1
12 5 1
12 9 1
12 10 1
13 0 1
13 1 1
13 2 1
13 4 1
13 5 1
13 8 1
13 9 1
13 11 1
13 12 1
14 3 1
14 5 1
14 7 1
14 10 1
14 12 1
15 2 1
15 3 1
15 5 1
15 7 1
15 10 1
15 11 1
15 12 1
15 13 1
16 0 1
16 1 1
16 3 1
16 5 1
16 6 1
16 12 1
17 0 1
17 1 1
17 3 1
17 4 1
17 5 1
17 6 1
17 7 1
17 9 1
17 15 1
18 0 1
18 5 1
18 6 1
18 7 1
18 8 1
18 9 1
18 11 1
18 12 1
19 1 1
19 6 1
19 9 1
19 13 1
19 15 1
19 18 1
